(set-info :smt-lib-version 2.6)
(set-logic QF_UFLRA)
(set-info :source |
MathSat group

|)
(set-info :category "random")
(set-info :status unsat)
(declare-fun x0 () Real)
(declare-fun x1 () Real)
(declare-fun x2 () Real)
(declare-fun x3 () Real)
(declare-fun x4 () Real)
(declare-fun x5 () Real)
(declare-fun x6 () Real)
(declare-fun x7 () Real)
(declare-fun x8 () Real)
(declare-fun x9 () Real)
(declare-fun x10 () Real)
(declare-fun x11 () Real)
(declare-fun x12 () Real)
(declare-fun x13 () Real)
(declare-fun x14 () Real)
(declare-fun x15 () Real)
(declare-fun x16 () Real)
(declare-fun x17 () Real)
(declare-fun x18 () Real)
(declare-fun x19 () Real)
(declare-fun x20 () Real)
(declare-fun x21 () Real)
(declare-fun x22 () Real)
(declare-fun x23 () Real)
(declare-fun x24 () Real)
(declare-fun x25 () Real)
(declare-fun x26 () Real)
(declare-fun x27 () Real)
(declare-fun x28 () Real)
(declare-fun x29 () Real)
(declare-fun x30 () Real)
(declare-fun x31 () Real)
(declare-fun x32 () Real)
(declare-fun x33 () Real)
(declare-fun x34 () Real)
(declare-fun x35 () Real)
(declare-fun x36 () Real)
(declare-fun x37 () Real)
(declare-fun x38 () Real)
(declare-fun x39 () Real)
(declare-fun f0_1 (Real) Real)
(declare-fun f0_2 (Real Real) Real)
(declare-fun f0_3 (Real Real Real) Real)
(declare-fun f0_4 (Real Real Real Real) Real)
(declare-fun P0 () Bool)
(declare-fun P1 () Bool)
(declare-fun P2 () Bool)
(declare-fun P3 () Bool)
(declare-fun P4 () Bool)
(declare-fun P5 () Bool)
(declare-fun P6 () Bool)
(declare-fun P7 () Bool)
(declare-fun P8 () Bool)
(declare-fun P9 () Bool)
(declare-fun P10 () Bool)
(declare-fun P11 () Bool)
(declare-fun P12 () Bool)
(declare-fun P13 () Bool)
(declare-fun P14 () Bool)
(declare-fun P15 () Bool)
(declare-fun P16 () Bool)
(declare-fun P17 () Bool)
(declare-fun P18 () Bool)
(declare-fun P19 () Bool)
(declare-fun P20 () Bool)
(declare-fun P21 () Bool)
(declare-fun P22 () Bool)
(declare-fun P23 () Bool)
(declare-fun P24 () Bool)
(declare-fun P25 () Bool)
(declare-fun P26 () Bool)
(declare-fun P27 () Bool)
(declare-fun P28 () Bool)
(declare-fun P29 () Bool)
(declare-fun P30 () Bool)
(declare-fun P31 () Bool)
(declare-fun P32 () Bool)
(declare-fun P33 () Bool)
(declare-fun P34 () Bool)
(declare-fun P35 () Bool)
(declare-fun P36 () Bool)
(declare-fun P37 () Bool)
(declare-fun P38 () Bool)
(declare-fun P39 () Bool)
(assert (let ((?v_25 (* 48 x11)) (?v_1 (* 45 x5))) (let ((?v_66 (<= (- (+ ?v_1 (* 48 x24)) (* 16 x7)) 10)) (?v_12 (= (- (- (* 44 x2) (* 16 x17)) (* 39 x34)) 39)) (?v_110 (< (+ (- (* 5 x10) (* 8 x5)) (* 14 x11)) 0)) (?v_0 (* 13 x11)) (?v_93 (<= (- (+ (* 22 x36) (* 55 x11)) (* 2 x29)) 54)) (?v_140 (< (+ (- (* 54 x11) (* 22 x25)) (* 54 x9)) 7)) (?v_30 (* 38 x29)) (?v_19 (distinct (- (- (* 45 x9) (* 56 x36)) (* 4 x36)) 6)) (?v_85 (< (- (+ (* 2 x14) (* 48 x36)) (* 25 x7)) 7)) (?v_53 (< (- (- (* 7 x30) (* 15 x13)) (* 2 x23)) 28)) (?v_117 (< (- (- (* 22 x26) (* 27 x33)) (* 49 x14)) 25)) (?v_14 (distinct (f0_2 x4 x6) x28)) (?v_4 (distinct (f0_2 x11 x10) (f0_1 x14))) (?v_65 (distinct (f0_1 x15) x23)) (?v_35 (distinct x1 x29)) (?v_79 (= (f0_2 x23 x36) x3)) (?v_3 (f0_1 x38))) (let ((?v_209 (distinct x13 ?v_3)) (?v_20 (f0_1 x28))) (let ((?v_38 (distinct ?v_20 x30)) (?v_186 (= x9 (f0_2 x24 x33))) (?v_52 (distinct (f0_2 x20 x32) (f0_2 x19 x37))) (?v_103 (distinct x34 (f0_2 x36 x21))) (?v_44 (distinct (f0_2 x11 x17) (f0_2 x6 x14))) (?v_102 (= (f0_2 x25 x28) (f0_1 x0))) (?v_5 (distinct x2 x19)) (?v_13 (f0_1 x1))) (let ((?v_170 (= x21 ?v_13)) (?v_42 (= (f0_2 x6 x33) (f0_1 x12))) (?v_165 (= (f0_2 x26 x8) x23)) (?v_73 (distinct (f0_1 x18) x11)) (?v_9 (distinct x29 ?v_13)) (?v_72 (distinct (f0_1 x35) (f0_1 x22))) (?v_144 (= x12 (f0_2 x36 x12))) (?v_33 (distinct (f0_2 x14 x14) (f0_1 x32))) (?v_28 (distinct ?v_3 (f0_2 x6 x17))) (?v_113 (distinct (f0_2 x7 x13) (f0_2 x22 x36))) (?v_138 (distinct x32 x5)) (?v_121 (distinct x29 x20)) (?v_83 (= ?v_20 (f0_2 x27 x23))) (?v_94 (f0_1 x26))) (let ((?v_60 (= ?v_94 x34)) (?v_78 (f0_1 x6))) (let ((?v_114 (distinct ?v_78 (f0_2 x9 x38))) (?v_40 (distinct (f0_2 x27 x31) (f0_1 x21))) (?v_54 (distinct (f0_2 x10 x33) ?v_78)) (?v_68 (= (f0_1 x3) (f0_2 x38 x4))) (?v_136 (= (f0_1 x39) (f0_2 x22 x6))) (?v_108 (distinct ?v_94 x29)) (?v_95 (f0_1 x2))) (let ((?v_97 (= x16 ?v_95)) (?v_18 (distinct ?v_95 (f0_2 x39 x28))) (?v_168 (= (f0_2 x36 x34) (f0_2 x19 x16))) (?v_26 (distinct (f0_2 x31 x27) (f0_2 x17 x2))) (?v_49 (distinct x11 x15)) (?v_141 (= (f0_1 x34) (f0_2 x12 x7))) (?v_84 (= (f0_2 x8 x23) x39)) (?v_47 (not ?v_113)) (?v_157 (not ?v_65)) (?v_8 (not P1)) (?v_195 (not P16)) (?v_39 (not ?v_14))) (let ((?v_177 (not ?v_26)) (?v_43 (not P39)) (?v_139 (not ?v_209)) (?v_16 (not P30)) (?v_183 (not ?v_186)) (?v_15 (not P37)) (?v_27 (not P15)) (?v_154 (not ?v_5)) (?v_101 (not P5)) (?v_70 (not P19)) (?v_21 (not ?v_60)) (?v_22 (not P25)) (?v_90 (not P3)) (?v_64 (not ?v_9)) (?v_67 (not ?v_12)) (?v_45 (not P33)) (?v_132 (not ?v_19)) (?v_158 (not P2)) (?v_58 (not ?v_103)) (?v_107 (not ?v_85)) (?v_92 (not ?v_33)) (?v_199 (not ?v_52)) (?v_100 (not P6)) (?v_34 (not ?v_28)) (?v_164 (not P29)) (?v_57 (not P32)) (?v_126 (not ?v_140)) (?v_142 (not ?v_38)) (?v_163 (not ?v_42))) (let ((?v_174 (or ?v_163 ?v_43)) (?v_62 (not ?v_44)) (?v_156 (not P0)) (?v_124 (not P28)) (?v_201 (not ?v_49)) (?v_129 (not P21)) (?v_63 (not P9)) (?v_87 (not ?v_53)) (?v_71 (not ?v_54)) (?v_81 (not P31)) (?v_194 (not P8)) (?v_134 (not ?v_68)) (?v_80 (not ?v_121)) (?v_74 (not ?v_73)) (?v_69 (not P4)) (?v_176 (not P10)) (?v_82 (not P20)) (?v_86 (not P17)) (?v_175 (not ?v_136)) (?v_99 (not P26)) (?v_188 (not ?v_79)) (?v_98 (not ?v_84)) (?v_118 (not P27)) (?v_133 (not P14)) (?v_151 (not ?v_102)) (?v_149 (not ?v_72)) (?v_122 (not ?v_83)) (?v_143 (not ?v_93)) (?v_105 (not ?v_108)) (?v_202 (not ?v_97)) (?v_131 (not P23)) (?v_200 (not P18)) (?v_125 (not ?v_40)) (?v_173 (not ?v_141)) (?v_185 (not ?v_144)) (?v_115 (not ?v_165)) (?v_178 (not P22)) (?v_179 (not P35)) (?v_159 (not ?v_114)) (?v_180 (not ?v_35)) (?v_130 (not P7)) (?v_191 (not ?v_117)) (?v_162 (not P34)) (?v_147 (not ?v_138)) (?v_181 (not P13)) (?v_153 (not ?v_66)) (?v_171 (not ?v_110))) (let ((?v_192 (or ?v_35 ?v_122)) (?v_187 (not ?v_168)) (?v_193 (not ?v_170)) (?v_172 (not P38)) (?v_184 (not ?v_18)) (?v_210 (not P24)) (?v_198 (not P36)) (?v_203 (not P11)) (?v_205 (not P12)) (?v_207 (not ?v_4)) (?v_212 (or ?v_80 P22)) (?v_31 (<= (- ?v_0 ?v_0) 47))) (let ((?v_145 (not ?v_31)) (?v_167 (< (- (* 10 x13) (* 24 x35)) 21))) (let ((?v_116 (not ?v_167)) (?v_150 (<= (+ (* 18 x23) (* 40 x13) (* 57 x29)) 12))) (let ((?v_211 (not ?v_150)) (?v_76 (< (+ (- (* 20 x11) (* 42 x38)) (* 20 x37)) (- 26))) (?v_7 (< (+ (- (* (- 54) x37) ?v_25) (* 15 x14)) 13)) (?v_37 (<= (+ (- (* 47 x39) (* 34 x39)) (* 15 x7)) (- 14)))) (let ((?v_48 (not ?v_37)) (?v_77 (<= (- (- (* (- 7) x33) (* 43 x13)) (* 22 x11)) 3))) (let ((?v_197 (not ?v_77)) (?v_2 (< (+ (* (- 4) x34) (* 13 x15) (* 13 x22)) (- 32))) (?v_119 (<= (- (- (* (- 21) x9) (* 53 x13)) ?v_1) (- 18)))) (let ((?v_55 (not ?v_2)) (?v_6 (<= (+ (- (* (- 7) x1) (* 49 x27)) (* 40 x12)) 4)) (?v_91 (<= (+ (- (* (- 41) x27) 0) (* 51 x38)) 49))) (let ((?v_89 (not ?v_91)) (?v_75 (<= (+ (- (* (- 40) x13) (* 48 x16)) (* 44 x36)) (- 45))) (?v_11 (distinct (+ (* (- 9) x25) (* 5 x7) (* 12 x22)) 13)) (?v_61 (< (+ (- (* 17 x11) (* 46 x4)) (* 52 x12)) (- 51))) (?v_10 (<= (+ (* (- 8) x27) (* 54 x38) (* 55 x28)) (- 2))) (?v_24 (= (+ (* (- 9) x29) (* 41 x34) (* 43 x34)) (- 31)))) (let ((?v_109 (not ?v_24)) (?v_32 (not ?v_7)) (?v_23 (not ?v_10)) (?v_36 (distinct (+ (- (* (- 21) x8) (* 34 x32)) (* 42 x7)) 57)) (?v_17 (< (+ ?v_30 (* 44 x29) (* 55 x27)) (- 18)))) (let ((?v_59 (not ?v_17)) (?v_106 (not ?v_11)) (?v_29 (<= (- (- (* 50 x34) ?v_25) (* 32 x16)) (- 47)))) (let ((?v_46 (not ?v_29)) (?v_50 (distinct (+ (- (* (- 18) x22) (* 11 x3)) ?v_30) 2)) (?v_96 (= (+ (* (- 14) x3) (* 31 x23) (* 10 x12)) (- 2)))) (let ((?v_41 (not ?v_96)) (?v_56 (not ?v_36)) (?v_160 (<= (- (+ (* 15 x15) (* 23 x36)) (* 37 x15)) (- 38)))) (let ((?v_135 (not ?v_160)) (?v_146 (<= (+ (* (- 36) x34) (* 45 x20) (* 47 x8)) 36))) (let ((?v_128 (not ?v_146)) (?v_169 (< (+ (* 34 x18) (* 48 x25) (* 44 x34)) (- 17)))) (let ((?v_51 (not ?v_169)) (?v_120 (not ?v_50)) (?v_104 (= (- (+ (* 56 x22) (* 12 x15)) (* 42 x14)) (- 3))) (?v_112 (< (- (+ (* (- 44) x29) (* 39 x37)) (* 35 x29)) 51)) (?v_137 (not ?v_76)) (?v_88 (distinct (- (+ (* (- 9) x22) (* 3 x37)) (* 53 x1)) 0))) (let ((?v_127 (not ?v_88)) (?v_123 (distinct (+ (* (- 43) x7) (* 45 x27) (* 30 x6)) (- 24))) (?v_148 (<= (- (- (* 41 x33) (* 23 x32)) (* 55 x33)) (- 23))) (?v_111 (< (- (+ (* (- 31) x22) (* 42 x24)) (* 5 x19)) 24)) (?v_152 (not ?v_112)) (?v_155 (not ?v_104)) (?v_189 (distinct (- (- (* 11 x13) 0) (* 51 x4)) (- 52))) (?v_190 (not ?v_61)) (?v_182 (not ?v_119))) (let ((?v_166 (not ?v_111)) (?v_161 (not ?v_75)) (?v_213 (or ?v_84 ?v_155)) (?v_208 (not ?v_6)) (?v_196 (not ?v_123)) (?v_206 (not ?v_148)) (?v_204 (not ?v_189))) (and (and (and (and (and (and (and (and (and (and (and (and (and (and (and (and (and (and (and (and (and (and (and (and (and (and (and (and (and (and (and (and (and (and (and (and (and (and (and (and (and (and (and (and (and (and (and (and (and (and (and (and (and (and (and (and (and (and (and (and (and (and (and (and (and (and (and (and (and (and (and (and (and (and (and (and (and (and (and (and (and (and (and (and (and (and (and (and (and (and (and (and (and (and (and (and (and (and (and (and (and (and (and (and (and (and (and (and (and (and (and (and (and (and (and (and (and (and (and (and (and (and (and (and (and (and (and (and (and (and (and (and (and (and (and (and (and (and (and (and (and (and (and (and (and (and (and (and (and (and (and (and (and (and (and (and (and (and (and (and (and (and (and (and (and (and (and (and (and (and (and (and (and (and (and (and (and (and (and (and (and (and (and (and (and (and (and (and (and (and (and (and (and (and (and (and (and (and (and (and (and (and (and (and (and (and (and (and (and (and (and (and (and (and (and (and (and (and (and (and (and (and (and (and (and (and (and (and (and (and (and (and (and (and (and (and (and (and (and (and (and (and (and (and (and (and (and (and (and (and (and (and (and (and (and (and (and (and (and (and (and (and (and (and (and (and (and (and (and (and (and (and (and (and (and (and (and (and (and (and (and (and (and (and (and (and (and (and (and (and (and (and (and (and (and (and (and (and (and (and (and (and (and (and (and (and (and (and (and (and (and (and (and (and (and (and (and (and (and (and (and (and (and (and (and (and (and (and (and (and (and (and (and (and (and (and (and (and (and (and (and (and (and (and (and (and (and (and (and (and (and (and (and (and (and (and (and (and (and (and (and (and (and (and (and (and (and (and (and (and (and (and (and (and (and (and (and (and (and (and (and (and (and (and (and (and (and (and (and (and (and (and (and (and (and (and (and (and (and (and (and (and (and (and (and (and (and (and (and (and (and (and (and (and (and (and (and (and (and (and (and (and (and (and (and (and (and (and (and (and (and (and (and (and (and (and (and (and (and (and (and (and (and (and (and (and (and (and (and (and (and (and (and (and (and (and (and (and (and (and (and (and (and (and (and (and (and (and (and (and (and (and (and (and (and (and (and (and (and (or (or ?v_47 ?v_76) ?v_31) (or (or ?v_7 ?v_5) ?v_48)) (or (or ?v_197 ?v_79) ?v_35)) (or (or ?v_157 P26) ?v_2)) (or (or ?v_8 ?v_195) ?v_12)) (or (or P4 ?v_28) ?v_119)) (or (or ?v_66 ?v_55) ?v_39)) (or (or P4 ?v_4) ?v_177)) (or (or ?v_9 ?v_43) ?v_139)) (or (or ?v_6 P24) ?v_40)) (or (or ?v_16 ?v_44) ?v_49)) (or (or ?v_183 ?v_15) ?v_4)) (or (or ?v_89 ?v_27) P28)) (or (or ?v_75 ?v_154) ?v_101)) (or (or P25 ?v_42) P19)) (or (or ?v_70 ?v_6) ?v_53)) (or (or ?v_18 ?v_11) ?v_38)) (or (or ?v_84 ?v_61) ?v_7)) (or (or ?v_10 P3) ?v_109)) (or (or ?v_21 ?v_22) ?v_32)) (or (or ?v_8 ?v_90) ?v_9)) (or (or ?v_7 ?v_23) ?v_64)) (or (or P21 ?v_36) ?v_11)) (or (or P33 ?v_59) ?v_67)) (or (or ?v_45 ?v_170) ?v_2)) (or (or ?v_132 ?v_14) ?v_15)) (or (or ?v_16 ?v_158) ?v_17)) (or (or ?v_18 ?v_58) ?v_19)) (or (or P7 ?v_83) ?v_106)) (or (or P8 ?v_21) ?v_107)) (or (or ?v_92 ?v_117) P32)) (or (or P21 ?v_199) P36)) (or (or ?v_22 ?v_100) ?v_23)) (or (or ?v_168 ?v_24) ?v_29)) (or (or ?v_26 ?v_27) ?v_34)) (or (or ?v_46 ?v_50) ?v_145)) (or (or ?v_32 ?v_33) ?v_34)) (or (or ?v_41 ?v_35) ?v_164)) (or (or ?v_57 ?v_56) ?v_34)) (or (or P39 ?v_126) ?v_37)) (or (or ?v_142 P17) ?v_39)) (or (or P28 ?v_40) ?v_41)) (or ?v_174 ?v_62)) (or (or ?v_45 ?v_36) ?v_156)) (or (or ?v_46 ?v_47) ?v_48)) (or (or ?v_124 ?v_201) ?v_135)) (or (or ?v_129 ?v_44) P5)) (or (or ?v_128 P36) P19)) (or (or ?v_54 ?v_51) ?v_120)) (or (or ?v_51 ?v_93) ?v_15)) (or (or P8 ?v_52) ?v_63)) (or (or ?v_45 ?v_6) ?v_87)) (or (or ?v_71 ?v_81) P10)) (or (or ?v_55 ?v_56) ?v_12)) (or (or ?v_43 ?v_194) P2)) (or (or P24 ?v_72) P10)) (or (or ?v_104 ?v_57) ?v_58)) (or (or ?v_45 P12) P28)) (or (or ?v_59 ?v_17) ?v_55)) (or (or ?v_60 ?v_61) ?v_27)) (or (or ?v_62 ?v_63) ?v_134)) (or (or ?v_64 ?v_110) ?v_80)) (or (or ?v_24 ?v_65) ?v_31)) (or (or P36 P26) ?v_116)) (or (or ?v_66 ?v_67) ?v_52)) (or (or ?v_62 ?v_49) ?v_68)) (or (or ?v_74 ?v_112) P9)) (or (or P26 ?v_50) ?v_69)) (or (or P27 ?v_41) ?v_176)) (or (or P2 P5) ?v_7)) (or (or ?v_8 ?v_69) ?v_70)) (or (or ?v_55 ?v_71) ?v_5)) (or (or ?v_70 ?v_72) P1)) (or (or ?v_12 P14) ?v_82)) (or (or ?v_66 P33) ?v_73)) (or (or ?v_74 ?v_75) P5)) (or (or ?v_86 ?v_31) ?v_4)) (or (or ?v_137 ?v_16) ?v_175)) (or (or ?v_77 ?v_99) P3)) (or (or ?v_114 ?v_188) ?v_80)) (or (or ?v_81 ?v_73) ?v_22)) (or (or ?v_82 ?v_83) ?v_98)) (or (or P19 ?v_26) ?v_88)) (or (or ?v_69 P7) ?v_82)) (or (or ?v_118 P17) ?v_133)) (or (or ?v_85 ?v_21) ?v_86)) (or (or P13 ?v_58) ?v_51)) (or (or ?v_52 ?v_87) ?v_127)) (or (or ?v_59 ?v_89) P10)) (or (or ?v_123 ?v_90) ?v_60)) (or (or ?v_151 ?v_91) P11)) (or (or ?v_92 ?v_32) P9)) (or (or P31 ?v_149) ?v_122)) (or (or ?v_15 ?v_143) ?v_105)) (or (or ?v_202 ?v_148) ?v_96)) (or (or P38 ?v_131) P1)) (or (or ?v_97 ?v_200) ?v_98)) (or (or ?v_23 P37) ?v_99)) (or (or ?v_100 ?v_28) ?v_125)) (or (or P35 ?v_66) P22)) (or (or ?v_101 ?v_29) ?v_102)) (or (or ?v_102 P34) ?v_9)) (or (or ?v_173 ?v_74) ?v_72)) (or (or ?v_103 P25) ?v_104)) (or (or ?v_53 P13) ?v_74)) (or (or P12 ?v_23) ?v_185)) (or (or ?v_90 ?v_71) ?v_115)) (or (or ?v_111 ?v_53) ?v_27)) (or (or ?v_46 P2) P16)) (or (or ?v_178 ?v_44) ?v_26)) (or (or ?v_105 ?v_56) ?v_106)) (or (or ?v_64 ?v_99) ?v_33)) (or (or P36 ?v_14) ?v_107)) (or (or P0 ?v_108) ?v_109)) (or (or P18 P19) ?v_64)) (or (or ?v_110 ?v_111) ?v_85)) (or (or ?v_152 ?v_111) ?v_16)) (or (or P22 ?v_48) P11)) (or (or P28 ?v_155) ?v_66)) (or (or P9 ?v_70) ?v_179)) (or (or ?v_113 ?v_80) ?v_4)) (or (or ?v_159 P17) ?v_37)) (or (or ?v_115 ?v_180) ?v_130)) (or (or ?v_116 ?v_117) ?v_27)) (or (or P11 ?v_63) ?v_99)) (or (or ?v_118 P37) ?v_119)) (or (or ?v_138 ?v_120) ?v_106)) (or (or ?v_8 ?v_121) ?v_87)) (or (or ?v_109 ?v_24) ?v_97)) (or (or ?v_122 ?v_73) P22)) (or (or P8 ?v_79) ?v_114)) (or (or ?v_191 ?v_28) ?v_123)) (or (or ?v_124 ?v_4) ?v_72)) (or (or ?v_79 ?v_189) ?v_114)) (or (or ?v_86 ?v_115) ?v_162)) (or (or ?v_125 ?v_81) ?v_126)) (or (or ?v_7 ?v_69) ?v_127)) (or (or ?v_190 ?v_16) ?v_128)) (or (or ?v_46 P21) ?v_127)) (or (or ?v_17 P1) P18)) (or (or ?v_129 P15) ?v_89)) (or (or ?v_96 ?v_130) ?v_57)) (or (or ?v_117 ?v_49) P38)) (or (or ?v_131 ?v_132) ?v_133)) (or (or ?v_9 ?v_123) ?v_79)) (or (or ?v_98 ?v_74) ?v_134)) (or (or ?v_135 ?v_136) ?v_130)) (or (or ?v_130 P32) P17)) (or (or P36 P32) ?v_137)) (or (or P33 ?v_147) ?v_139)) (or (or ?v_140 P23) P34)) (or (or ?v_28 ?v_64) ?v_141)) (or (or ?v_182 P24) P1)) (or (or ?v_142 ?v_143) P38)) (or (or ?v_112 ?v_90) ?v_144)) (or (or ?v_4 ?v_75) ?v_150)) (or (or ?v_181 P22) ?v_153)) (or (or ?v_19 ?v_145) P3)) (or (or ?v_29 P10) P2)) (or (or ?v_8 ?v_39) ?v_87)) (or (or ?v_51 ?v_146) ?v_93)) (or (or ?v_125 ?v_147) ?v_99)) (or (or ?v_148 ?v_149) ?v_37)) (or (or ?v_150 ?v_73) ?v_151)) (or (or ?v_152 ?v_76) ?v_153)) (or (or ?v_41 ?v_145) ?v_80)) (or (or ?v_36 P34) ?v_132)) (or (or P23 ?v_166) ?v_90)) (or (or ?v_154 ?v_54) ?v_69)) (or (or ?v_129 ?v_131) ?v_124)) (or (or P31 ?v_80) ?v_4)) (or (or ?v_31 ?v_74) ?v_120)) (or (or ?v_103 ?v_108) ?v_71)) (or (or ?v_155 P12) ?v_97)) (or (or ?v_156 P7) ?v_149)) (or (or ?v_161 ?v_138) ?v_157)) (or (or ?v_158 P34) ?v_159)) (or (or ?v_153 ?v_67) ?v_160)) (or (or ?v_156 ?v_10) ?v_114)) (or (or ?v_80 ?v_81) P19)) (or (or ?v_126 ?v_161) ?v_73)) (or (or ?v_171 ?v_47) ?v_37)) (or (or ?v_162 ?v_48) ?v_93)) (or (or P27 ?v_163) P4)) (or (or P33 ?v_164) ?v_86)) (or (or ?v_126 P39) ?v_117)) (or (or ?v_37 ?v_127) ?v_67)) (or (or P37 ?v_57) ?v_119)) (or (or ?v_89 ?v_60) ?v_11)) (or (or ?v_41 ?v_48) ?v_165)) (or ?v_213 ?v_59)) (or (or P38 P32) ?v_166)) (or (or ?v_119 ?v_27) ?v_37)) (or (or ?v_82 ?v_166) ?v_71)) (or (or ?v_167 ?v_168) ?v_58)) (or (or ?v_125 ?v_4) ?v_33)) (or ?v_192 ?v_37)) (or (or ?v_187 ?v_32) ?v_82)) (or (or ?v_160 ?v_10) ?v_29)) (or (or ?v_73 ?v_52) ?v_88)) (or (or ?v_169 ?v_168) ?v_160)) (or (or P18 P26) ?v_24)) (or (or P5 P5) P11)) (or (or ?v_8 ?v_193) ?v_67)) (or (or ?v_171 ?v_172) ?v_17)) (or (or ?v_103 ?v_103) ?v_14)) (or (or ?v_208 ?v_172) ?v_141)) (or (or ?v_2 ?v_58) ?v_108)) (or (or ?v_138 ?v_98) P1)) (or (or ?v_173 P1) ?v_170)) (or (or ?v_105 ?v_184) ?v_93)) (or (or P25 P8) ?v_8)) (or ?v_174 P25)) (or (or P31 ?v_112) ?v_7)) (or (or ?v_115 ?v_164) ?v_142)) (or (or ?v_135 ?v_99) ?v_175)) (or (or ?v_111 ?v_176) ?v_131)) (or (or ?v_40 ?v_120) P29)) (or (or P33 ?v_97) ?v_51)) (or (or ?v_5 ?v_62) ?v_177)) (or (or ?v_132 P20) ?v_178)) (or (or P35 P38) ?v_109)) (or (or ?v_22 P14) ?v_143)) (or (or ?v_160 P13) ?v_84)) (or (or ?v_113 ?v_161) P3)) (or (or ?v_19 ?v_154) ?v_29)) (or (or ?v_90 ?v_179) ?v_120)) (or (or ?v_102 ?v_128) ?v_29)) (or (or ?v_74 ?v_66) ?v_123)) (or (or ?v_180 ?v_169) ?v_157)) (or (or P3 ?v_29) ?v_181)) (or (or ?v_85 ?v_173) ?v_31)) (or (or ?v_59 ?v_29) ?v_162)) (or (or P21 P30) ?v_182)) (or (or ?v_114 ?v_124) ?v_66)) (or (or ?v_105 P38) ?v_35)) (or (or P4 ?v_108) ?v_88)) (or (or ?v_180 ?v_108) ?v_33)) (or (or ?v_77 ?v_19) ?v_183)) (or (or ?v_196 ?v_210) P18)) (or (or ?v_64 ?v_184) ?v_47)) (or (or ?v_172 P22) ?v_162)) (or (or ?v_114 ?v_185) P35)) (or (or ?v_49 ?v_114) ?v_33)) (or (or ?v_131 ?v_166) ?v_138)) (or (or ?v_186 ?v_51) ?v_108)) (or (or ?v_132 ?v_115) ?v_99)) (or (or ?v_6 ?v_175) P0)) (or (or ?v_12 ?v_187) ?v_184)) (or (or ?v_2 ?v_104) ?v_96)) (or (or P33 P18) ?v_198)) (or (or ?v_11 ?v_93) ?v_175)) (or (or ?v_97 ?v_19) P16)) (or (or ?v_107 ?v_54) ?v_153)) (or (or ?v_188 P15) ?v_189)) (or (or ?v_206 ?v_24) ?v_61)) (or (or ?v_190 ?v_150) ?v_81)) (or (or ?v_44 ?v_37) ?v_110)) (or (or ?v_191 ?v_31) ?v_47)) (or (or P35 ?v_53) ?v_75)) (or (or P23 ?v_84) ?v_130)) (or (or ?v_98 ?v_107) ?v_211)) (or (or ?v_29 P18) ?v_98)) (or (or ?v_91 P21) ?v_74)) (or ?v_192 ?v_204)) (or (or ?v_6 ?v_193) ?v_87)) (or (or ?v_153 ?v_37) ?v_80)) (or (or ?v_69 ?v_69) ?v_93)) (or (or ?v_6 ?v_69) ?v_100)) (or (or ?v_194 ?v_126) ?v_125)) (or (or ?v_71 ?v_88) ?v_131)) (or (or ?v_203 ?v_82) P19)) (or (or ?v_11 ?v_63) ?v_83)) (or (or P37 P7) ?v_108)) (or (or ?v_126 ?v_151) ?v_164)) (or (or ?v_16 ?v_195) ?v_114)) (or (or ?v_188 ?v_66) ?v_53)) (or (or ?v_44 ?v_162) ?v_141)) (or (or ?v_22 ?v_28) P10)) (or (or ?v_62 P1) ?v_175)) (or (or ?v_103 ?v_98) ?v_5)) (or (or ?v_33 ?v_181) ?v_159)) (or (or ?v_173 ?v_149) ?v_185)) (or (or ?v_196 P37) ?v_56)) (or (or P30 ?v_135) ?v_99)) (or (or ?v_19 P24) ?v_97)) (or (or P8 P10) ?v_90)) (or (or ?v_193 ?v_197) ?v_163)) (or (or ?v_31 ?v_56) ?v_198)) (or (or ?v_152 ?v_46) ?v_120)) (or (or ?v_99 ?v_111) ?v_117)) (or (or ?v_82 ?v_18) ?v_161)) (or (or ?v_195 P25) ?v_162)) (or (or ?v_199 ?v_200) P16)) (or (or P20 ?v_88) P3)) (or (or P12 P18) ?v_193)) (or (or ?v_12 ?v_5) ?v_97)) (or (or ?v_67 ?v_201) P38)) (or (or ?v_108 ?v_168) ?v_110)) (or (or ?v_202 ?v_100) ?v_108)) (or (or ?v_4 ?v_187) P30)) (or (or ?v_34 ?v_115) ?v_141)) (or (or ?v_73 P6) ?v_63)) (or (or ?v_162 ?v_135) P26)) (or (or ?v_81 P13) ?v_120)) (or (or ?v_50 P37) ?v_151)) (or (or ?v_115 ?v_177) ?v_10)) (or (or ?v_57 ?v_18) ?v_12)) (or (or ?v_148 ?v_80) ?v_178)) (or (or ?v_121 ?v_203) ?v_181)) (or (or ?v_9 ?v_18) P23)) (or (or ?v_119 ?v_137) ?v_204)) (or (or ?v_158 ?v_10) ?v_205)) (or (or ?v_146 P22) ?v_151)) (or (or ?v_72 ?v_107) ?v_68)) (or (or ?v_93 ?v_99) ?v_19)) (or (or P32 ?v_32) P5)) (or (or ?v_45 ?v_50) ?v_80)) (or (or ?v_183 ?v_124) ?v_161)) (or (or ?v_204 ?v_166) ?v_176)) (or (or ?v_69 ?v_173) ?v_128)) (or (or ?v_164 P13) ?v_89)) (or (or ?v_22 ?v_163) ?v_195)) (or (or P14 ?v_127) ?v_100)) (or (or ?v_104 ?v_34) ?v_121)) (or (or ?v_36 P22) ?v_105)) (or (or ?v_142 ?v_73) ?v_182)) (or (or ?v_57 ?v_124) ?v_105)) (or (or ?v_127 ?v_76) ?v_178)) (or (or ?v_39 ?v_60) ?v_43)) (or (or ?v_77 ?v_79) ?v_196)) (or (or ?v_14 ?v_11) P22)) (or (or ?v_176 ?v_169) ?v_125)) (or (or P38 ?v_136) ?v_71)) (or (or P21 ?v_190) ?v_5)) (or (or ?v_108 ?v_50) ?v_163)) (or (or ?v_195 ?v_5) ?v_97)) (or (or ?v_102 ?v_200) ?v_202)) (or (or ?v_23 ?v_49) ?v_105)) (or (or ?v_136 ?v_151) ?v_140)) (or (or P23 ?v_76) ?v_121)) (or (or ?v_196 P26) ?v_87)) (or (or ?v_148 ?v_189) ?v_41)) (or (or ?v_135 ?v_65) ?v_163)) (or (or P35 ?v_39) ?v_88)) (or (or ?v_178 ?v_101) ?v_62)) (or (or ?v_80 P30) P19)) (or (or ?v_45 ?v_100) ?v_152)) (or (or P36 P28) P1)) (or (or ?v_99 P9) ?v_116)) (or (or ?v_165 P18) ?v_160)) (or (or ?v_84 ?v_181) P11)) (or (or ?v_138 ?v_12) ?v_116)) (or (or ?v_196 ?v_88) ?v_17)) (or (or ?v_134 ?v_149) ?v_120)) (or (or P11 ?v_27) ?v_135)) (or (or ?v_56 ?v_100) ?v_77)) (or (or P27 ?v_180) P16)) (or (or ?v_36 P29) ?v_23)) (or (or ?v_156 P22) ?v_205)) (or (or ?v_206 ?v_126) P37)) (or (or P7 ?v_150) ?v_27)) (or (or ?v_35 ?v_190) ?v_114)) (or (or ?v_14 ?v_39) ?v_206)) (or (or P29 ?v_140) ?v_201)) (or (or P26 ?v_180) P34)) (or (or ?v_172 ?v_12) ?v_81)) (or (or ?v_196 ?v_34) P11)) (or (or ?v_54 ?v_183) P8)) (or (or ?v_47 ?v_90) ?v_165)) (or (or ?v_71 ?v_207) ?v_198)) (or ?v_212 ?v_66)) (or (or ?v_184 ?v_45) P36)) (or (or ?v_2 P17) ?v_131)) (or (or ?v_2 P26) ?v_97)) (or (or ?v_107 ?v_33) ?v_132)) (or (or ?v_11 ?v_187) ?v_118)) (or (or ?v_163 ?v_28) ?v_8)) (or (or ?v_110 P32) ?v_132)) (or (or ?v_42 ?v_32) ?v_96)) (or (or ?v_134 ?v_171) P25)) (or (or ?v_175 P8) ?v_106)) (or (or ?v_190 P11) P15)) (or (or ?v_77 ?v_53) ?v_28)) (or (or ?v_178 ?v_81) ?v_108)) (or (or ?v_185 ?v_73) ?v_137)) (or (or ?v_104 P5) ?v_73)) (or (or ?v_69 ?v_52) ?v_42)) (or (or ?v_205 ?v_8) ?v_105)) (or (or ?v_115 ?v_81) ?v_167)) (or (or ?v_196 ?v_195) ?v_108)) (or (or ?v_11 ?v_144) ?v_49)) (or (or ?v_88 P33) ?v_153)) (or (or ?v_17 ?v_65) ?v_185)) (or (or P38 ?v_51) ?v_40)) (or (or ?v_75 P31) ?v_60)) (or (or ?v_149 ?v_207) P35)) (or (or ?v_76 ?v_81) P32)) (or (or ?v_164 ?v_15) P4)) (or (or ?v_65 ?v_65) ?v_181)) (or (or ?v_157 ?v_155) P25)) (or (or ?v_158 ?v_47) P10)) (or (or ?v_82 ?v_55) ?v_167)) (or (or P18 ?v_44) ?v_9)) (or (or ?v_122 ?v_112) P10)) (or (or ?v_135 P15) P33)) (or (or ?v_64 ?v_135) P33)) (or (or ?v_75 ?v_22) P33)) (or (or ?v_71 ?v_97) ?v_148)) (or (or ?v_44 ?v_118) P3)) (or (or ?v_180 ?v_32) ?v_87)) (or (or ?v_50 ?v_116) ?v_160)) (or (or ?v_41 ?v_24) ?v_167)) (or (or P0 P25) ?v_177)) (or (or ?v_145 ?v_151) ?v_156)) (or (or ?v_106 ?v_60) ?v_165)) (or (or ?v_35 ?v_5) ?v_82)) (or (or ?v_34 ?v_103) ?v_82)) (or (or ?v_200 ?v_80) ?v_137)) (or (or ?v_53 ?v_111) ?v_151)) (or (or ?v_128 ?v_99) ?v_171)) (or (or ?v_56 ?v_69) P33)) (or (or ?v_163 ?v_88) P1)) (or (or ?v_206 ?v_115) ?v_42)) (or (or ?v_56 ?v_208) ?v_116)) (or (or ?v_119 ?v_61) ?v_88)) (or (or P1 ?v_110) ?v_159)) (or (or ?v_59 ?v_112) ?v_209)) (or (or ?v_153 ?v_150) ?v_103)) (or (or ?v_89 ?v_70) ?v_14)) (or (or ?v_140 P1) ?v_135)) (or (or ?v_48 ?v_130) ?v_180)) (or (or ?v_138 ?v_57) P33)) (or (or ?v_169 ?v_26) ?v_142)) (or (or ?v_140 ?v_205) P27)) (or (or ?v_84 ?v_127) ?v_210)) (or (or P22 ?v_202) P0)) (or (or ?v_113 ?v_150) ?v_127)) (or (or ?v_137 ?v_81) ?v_184)) (or (or ?v_184 ?v_126) P8)) (or (or ?v_70 ?v_179) ?v_21)) (or (or ?v_161 ?v_29) P30)) (or (or P38 P39) ?v_113)) (or (or P20 ?v_15) ?v_42)) (or (or ?v_63 P16) ?v_61)) (or (or P2 P26) ?v_62)) (or (or ?v_167 ?v_102) ?v_135)) (or (or ?v_123 P9) ?v_189)) (or (or ?v_89 ?v_114) ?v_84)) (or (or ?v_82 ?v_126) ?v_9)) (or (or ?v_22 ?v_49) ?v_119)) (or (or P2 P23) ?v_191)) (or (or ?v_22 ?v_23) ?v_96)) (or (or ?v_211 ?v_159) ?v_156)) (or ?v_212 ?v_49)) (or (or P11 ?v_135) ?v_24)) (or (or ?v_127 ?v_173) ?v_38)) (or (or P7 ?v_110) ?v_24)) (or (or ?v_126 P25) ?v_27)) (or (or ?v_109 ?v_54) ?v_162)) (or (or ?v_152 ?v_126) ?v_134)) (or (or ?v_184 P12) P9)) (or (or ?v_147 ?v_206) ?v_112)) (or (or ?v_194 ?v_171) ?v_16)) (or (or P35 ?v_138) ?v_141)) (or (or ?v_111 ?v_154) ?v_175)) (or (or ?v_138 ?v_179) ?v_80)) (or (or ?v_191 ?v_200) ?v_74)) (or (or ?v_181 ?v_12) ?v_194)) (or (or ?v_106 P22) ?v_71)) (or (or ?v_39 P11) ?v_8)) (or (or ?v_35 P38) ?v_16)) (or (or ?v_42 ?v_202) ?v_8)) (or (or ?v_143 ?v_72) ?v_201)) (or (or ?v_41 ?v_143) ?v_47)) (or (or P26 P28) ?v_153)) (or (or ?v_51 ?v_170) ?v_71)) (or ?v_213 ?v_139)) (or (or ?v_157 P25) P6)) (or (or P25 ?v_172) P19))))))))))))))))))))))))))))))
(check-sat)
(exit)
